(set-logic QF_AUFBV)
(declare-fun bvlambda_1_ () (_ BitVec 2))
(declare-fun bvlambda_2_ () (_ BitVec 1))
(declare-fun bvlambda_3_ () (_ BitVec 1))
(declare-fun bvlambda_4_ () (_ BitVec 1))
(declare-fun bvlambda_5_ () (_ BitVec 1))
(declare-fun bvlambda_6_ () (_ BitVec 2))
(declare-fun bvlambda_7_ () (_ BitVec 1))
(declare-fun bvlambda_8_ () (_ BitVec 11))
(declare-fun bvlambda_9_ () (_ BitVec 2))
(declare-fun a45 () (Array (_ BitVec 3) (_ BitVec 1)))
(declare-fun a46 () (Array (_ BitVec 11) (_ BitVec 1)))
(declare-fun a47 () (Array (_ BitVec 1) (_ BitVec 6)))
(declare-fun a48 () (Array (_ BitVec 1) (_ BitVec 4)))
(declare-fun a49 () (Array (_ BitVec 1) (_ BitVec 3)))
(declare-fun a50 () (Array (_ BitVec 5) (_ BitVec 9)))
(assert
(let (($e1 (_ bv0 1)))
(let (($e2 (_ bv26046 15)))
(let (($e3 (_ bv0 2)))
(let (($e4 (_ bv2 3)))
(let (($e5 (_ bv11666 14)))
(let (($e6 (_ bv13504 14)))
(let (($e7 (_ bv10770 14)))
(let (($e8 (_ bv0 5)))
(let (($e9 (_ bv0 10)))
(let (($e10 (_ bv0 9)))
(let (($e11 (_ bv0 15)))
(let (($e12 (_ bv4 13)))
(let (($e13 (_ bv0 14)))
(let (($e14 (_ bv1280 15)))
(let (($e15 (_ bv0 4)))
(let (($e16 (_ bv644 11)))
(let (($e17 (_ bv6 4)))
(let (($e18 (_ bv0 8)))
(let (($e19 (_ bv0 11)))
(let (($e20 (_ bv0 3)))
(let (($e21 (_ bv0 7)))
(let (($e22 (_ bv4 12)))
(let (($e23 (_ bv0 13)))
(let (($e24 (_ bv6 3)))
(let (($e25 (_ bv80 8)))
(let (($e26 (_ bv8086 14)))
(let (($e27 (_ bv0 6)))
(let (($e28 (_ bv14910 14)))
(let (($e29 (_ bv9218 16)))
(let (($e30 (_ bv3474 13)))
(let (($e31 (_ bv574 11)))
(let (($e32 (_ bv0 12)))
(let (($e33 (_ bv5312 13)))
(let (($e34 (_ bv80 15)))
(let (($e35 (_ bv14 7)))
(let (($e51 (concat $e18 bvlambda_5_)))
(let (($e52 (concat $e51 bvlambda_6_)))
(let (($e53 (concat (bvnot $e18) bvlambda_5_)))
(let (($e54 (concat $e53 bvlambda_6_)))
(let (($e55 (ite (= #b1 bvlambda_5_) $e54 $e52)))
(let (($e56 (select a46 $e55)))
(let (($e57 (concat $e13 (bvnot $e56))))
(let (($e58 (ite (bvult $e2 $e57) #b1 #b0)))
(let (($e59 (concat $e23 $e58)))
(let (($e60 (ite (bvult $e5 $e59) #b1 #b0)))
(let (($e61 (concat bvlambda_1_ bvlambda_2_)))
(let (($e62 (concat $e61 bvlambda_3_)))
(let (($e63 (concat $e62 bvlambda_4_)))
(let (($e64 (bvmul (bvnot $e8) $e63)))
(let (($e65 (concat $e10 $e64)))
(let (($e66 (bvand (bvnot $e6) $e65)))
(let (($e67 (bvurem (bvnot $e28) $e66)))
(let (($e68 (concat $e3 $e67)))
(let (($e69 (ite (bvult $e68 $e29) #b1 #b0)))
(let (($e70 (bvand $e69 $e60)))
(let (($e71 (bvand $e16 bvlambda_8_)))
(let (($e72 (select a46 $e71)))
(let (($e73 (concat $e32 $e72)))
(let (($e74 (ite (bvult (bvnot $e33) $e73) #b1 #b0)))
(let (($e75 (bvand (bvnot $e74) $e70)))
(let (($e76 (store a48 (bvnot $e1) (bvnot $e15))))
(let (($e77 (store $e76 bvlambda_4_ $e17)))
(let (($e78 (select $e77 (bvnot $e1))))
(let (($e79 (concat $e15 $e78)))
(let (($e80 (select a45 $e4)))
(let (($e81 (concat $e21 $e80)))
(let (($e82 (bvand $e25 $e81)))
(let (($e83 (bvand $e82 $e79)))
(let (($e84 (bvand (bvnot $e82) (bvnot $e79))))
(let (($e85 (bvand (bvnot $e84) (bvnot $e83))))
(let (($e86 ((_ extract 6 0) $e85)))
(let (($e87 (ite (bvult $e86 (bvnot $e35)) #b1 #b0)))
(let (($e88 ((_ extract 7 7) $e85)))
(let (($e89 (bvand $e88 $e87)))
(let (($e90 (bvand $e74 $e89)))
(let (($e91 (bvand (bvnot $e90) (bvnot $e75))))
(let (($e92 (concat bvlambda_7_ bvlambda_8_)))
(let (($e93 (concat $e92 bvlambda_9_)))
(let (($e94 (bvand $e7 $e93)))
(let (($e95 (bvadd (bvnot $e26) $e94)))
(let (($e96 (ite (bvult $e5 $e95) #b1 #b0)))
(let (($e97 (ite (= $e96 $e91) #b1 #b0)))
(let (($e98 (concat $e3 $e72)))
(let (($e99 (concat (bvnot $e3) $e72)))
(let (($e100 (ite (= #b1 $e72) $e99 $e98)))
(let (($e101 (ite (= $e20 $e100) #b1 #b0)))
(let (($e102 (ite (= $e80 $e101) #b1 #b0)))
(let (($e103 (concat $e13 $e80)))
(let (($e104 (bvand $e34 $e103)))
(let (($e105 (ite (bvult (bvnot $e14) $e104) #b1 #b0)))
(let (($e106 (bvand (bvnot $e105) (bvnot $e58))))
(let (($e107 (select a49 $e1)))
(let (($e108 (bvadd (bvnot $e107) (bvnot $e24))))
(let (($e109 (concat $e32 $e108)))
(let (($e110 (concat (bvnot $e32) $e108)))
(let (($e111 ((_ extract 2 2) $e108)))
(let (($e112 (ite (= #b1 $e111) $e110 $e109)))
(let (($e113 (ite (= $e11 $e112) #b1 #b0)))
(let (($e114 (bvand $e105 (bvnot $e113))))
(let (($e115 (bvand (bvnot $e114) (bvnot $e106))))
(let (($e116 (select a50 $e8)))
(let (($e117 (concat $e27 $e116)))
(let (($e118 (concat (bvnot $e27) $e116)))
(let (($e119 ((_ extract 8 8) $e116)))
(let (($e120 (ite (= #b1 $e119) $e118 $e117)))
(let (($e121 (ite (= $e11 $e120) #b1 #b0)))
(let (($e122 (ite (= $e121 $e115) #b1 #b0)))
(let (($e123 (bvand (bvnot $e122) (bvnot $e102))))
(let (($e124 (select a48 $e1)))
(let (($e125 (concat $e19 $e124)))
(let (($e126 (concat (bvnot $e19) $e124)))
(let (($e127 ((_ extract 3 3) $e124)))
(let (($e128 (ite (= #b1 $e127) $e126 $e125)))
(let (($e129 ((_ extract 13 0) $e128)))
(let (($e130 (ite (= (bvnot $e13) $e129) #b1 #b0)))
(let (($e131 ((_ extract 14 14) $e128)))
(let (($e132 (bvand $e131 (bvnot $e130))))
(let (($e133 (concat $e10 $e124)))
(let (($e134 (concat (bvnot $e10) $e124)))
(let (($e135 (ite (= #b1 $e127) $e134 $e133)))
(let (($e136 (ite (= $e12 $e135) #b1 #b0)))
(let (($e137 (ite (= $e136 (bvnot $e132)) #b1 #b0)))
(let (($e138 (bvand (bvnot $e137) $e122)))
(let (($e139 (bvand (bvnot $e138) (bvnot $e123))))
(let (($e140 (concat (bvnot $e10) $e64)))
(let (($e141 ((_ extract 4 4) $e64)))
(let (($e142 (ite (= #b1 $e141) $e140 $e65)))
(let (($e143 ((_ extract 12 0) $e142)))
(let (($e144 (ite (bvult $e30 $e143) #b1 #b0)))
(let (($e145 ((_ extract 13 13) $e142)))
(let (($e146 (bvand $e145 (bvnot $e144))))
(let (($e147 (ite (= $e146 $e139) #b1 #b0)))
(let (($e148 (concat $e3 $e107)))
(let (($e149 (concat (bvnot $e3) $e107)))
(let (($e150 ((_ extract 2 2) $e107)))
(let (($e151 (ite (= #b1 $e150) $e149 $e148)))
(let (($e152 (ite (bvult $e151 $e64) #b1 #b0)))
(let (($e153 ((_ extract 3 3) $e78)))
(let (($e154 (bvand $e153 $e152)))
(let (($e155 (bvand (bvnot $e153) (bvnot $e152))))
(let (($e156 (bvand (bvnot $e155) (bvnot $e154))))
(let (($e157 (bvand (bvnot $e156) $e147)))
(let (($e158 (bvand $e157 (bvnot $e97))))
(let (($e159 ((_ extract 0 0) $e64)))
(let (($e160 (select $e77 $e159)))
(let (($e161 (concat $e9 $e160)))
(let (($e162 (concat (bvnot $e9) $e160)))
(let (($e163 ((_ extract 3 3) $e160)))
(let (($e164 (ite (= #b1 $e163) $e162 $e161)))
(let (($e165 ((_ extract 12 0) $e164)))
(let (($e166 (concat $e18 $e64)))
(let (($e167 (bvand (bvnot $e33) $e166)))
(let (($e168 (ite (bvult $e167 $e165) #b1 #b0)))
(let (($e169 ((_ extract 13 13) $e164)))
(let (($e170 (bvand (bvnot $e169) $e168)))
(let (($e171 (concat $e15 $e72)))
(let (($e172 (concat (bvnot $e15) $e72)))
(let (($e173 (ite (= #b1 $e72) $e172 $e171)))
(let (($e174 ((_ extract 0 0) $e173)))
(let (($e175 (ite (= bvlambda_4_ $e174) #b1 #b0)))
(let (($e176 ((_ extract 1 1) $e173)))
(let (($e177 (ite (= bvlambda_3_ $e176) #b1 #b0)))
(let (($e178 ((_ extract 2 2) $e173)))
(let (($e179 (ite (= bvlambda_2_ $e178) #b1 #b0)))
(let (($e180 ((_ extract 4 3) $e173)))
(let (($e181 (ite (= bvlambda_1_ $e180) #b1 #b0)))
(let (($e182 (bvand $e181 $e179)))
(let (($e183 (bvand $e182 $e177)))
(let (($e184 (bvand $e183 $e175)))
(let (($e185 (ite (= $e184 $e170) #b1 #b0)))
(let (($e186 (concat $e27 $e64)))
(let (($e187 (select a47 (bvnot $e1))))
(let (($e188 (concat $e21 $e187)))
(let (($e189 (concat (bvnot $e21) $e187)))
(let (($e190 ((_ extract 5 5) $e187)))
(let (($e191 (ite (= #b1 $e190) $e189 $e188)))
(let (($e192 ((_ extract 11 0) $e191)))
(let (($e193 (ite (bvult $e192 $e22) #b1 #b0)))
(let (($e194 ((_ extract 12 12) $e191)))
(let (($e195 (bvand (bvnot $e194) (bvnot $e193))))
(let (($e196 (concat $e9 (bvnot $e195))))
(let (($e197 (ite (= #b1 bvlambda_2_) $e31 $e196)))
(let (($e198 (ite (bvult $e197 $e186) #b1 #b0)))
(let (($e199 (bvand (bvnot bvlambda_2_) (bvnot $e198))))
(let (($e200 (bvand (bvnot $e199) $e185)))
(let (($e201 (bvand (bvnot $e200) (bvnot $e158))))
(let (($e202 (bvand $e200 $e158)))
(let (($e203 (ite (= $e3 bvlambda_6_) #b1 #b0)))
(let (($e204 (bvand (bvnot bvlambda_5_) $e203)))
(let (($e205 (ite (= (bvnot $e3) bvlambda_6_) #b1 #b0)))
(let (($e206 (bvand bvlambda_5_ $e205)))
(let (($e207 (ite (= $e13 $e66) #b1 #b0)))
(let (($e208 (bvurem (bvnot $e8) $e63)))
(let (($e209 (ite (= $e8 $e208) #b1 #b0)))
(let (($e210 (ite (= (bvnot $e8) $e208) #b1 #b0)))
(let (($e211 (ite (= $e3 bvlambda_1_) #b1 #b0)))
(let (($e212 (bvand (bvnot bvlambda_2_) $e211)))
(let (($e213 (bvand (bvnot bvlambda_3_) $e212)))
(let (($e214 (bvand (bvnot bvlambda_4_) $e213)))
(let (($e215 (ite (= $e10 $e116) #b1 #b0)))
(let (($e216 (ite (= (bvnot $e10) $e116) #b1 #b0)))
(let (($e217 (bvand (bvnot $e216) (bvnot $e215))))
(let (($e218 (bvand $e217 (bvnot $e214))))
(let (($e219 (bvand $e218 (bvnot $e210))))
(let (($e220 (bvand $e219 (bvnot $e209))))
(let (($e221 (bvand $e220 (bvnot $e207))))
(let (($e222 (bvand $e221 (bvnot $e206))))
(let (($e223 (bvand $e222 (bvnot $e204))))
(let (($e224 (bvand $e223 (bvnot $e202))))
(let (($e225 (bvand $e224 (bvnot $e201))))
 (not (= $e225 #b0)))))))))))))))))))))))))))))))))))))))))))))))))))))))))))))))))))))))))))))))))))))))))))))))))))))))))))))))))))))))))))))))))))))))))))))))))))))))))))))))))))))))))))))))))))))))))))))))))))))))))))))))))))))
(check-sat)
(exit)
